ssat_solver_solve2
#level: 2
Abc_NtkNodeNum(s->pNtk): 356  , BDD limit: 10240
level 1: 15 element
Exist
existence_eliminate_scope
Abc_NtkIsBddLogic(pNtk): 0
Abc_NtkIsStrash(pNtk): 1
existence_eliminate_scope_aig
exist by BDD failed
Abc_NtkNodeNum(s->pNtk): 559390  , BDD limit: 671268
Build BDD success
level 0: 15 element
Random
c ssat solving in ABC
#var: 30
s SATISFIABLE
  > Upper bound = 5.509033e-01
  > Lower bound = 5.509033e-01
FINISHED CPU 3.57 MEM 148144 MAXMEM 148144 STALE 0 MAXMEM_RSS 102716
<time name="ALL">3680</time>
real 3.79
user 4.29
sys 1.81
